0 -1 6 -1 2 5 9 7 0 4 2 7 5 3 -1 
9 1 3 8 3 1 3 4 3 2 8 8 8 0 0 0 7 2 8 -1 
7 -1 9 6 8 7 7 3 5 8 8 2 7 5 2 -1 7 4 4 7 6 7 -1 
4 1 4 1 6 3 3 4 2 5 5 7 6 0 7 8 5 -1 
9 1 4 1 6 5 3 7 8 6 2 1 7 -1 6 1 0 9 -1 1 -1 
1 8 4 9 5 6 5 2 7 1 0 2 6 6 -1 
3 9 8 1 7 1 1 9 3 8 9 0 9 7 8 0 -1 
6 5 7 6 -1 3 2 8 6 0 1 -1 8 4 8 5 9 0 6 9 3 2 2 9 -1 
4 7 9 5 5 4 5 6 4 1 -1 7 0 4 2 6 6 3 2 2 1 7 -1 
4 6 4 1 9 1 1 -1 8 6 9 3 7 6 0 1 3 6 -1 
